SDVRP instances/custom_instances/p02_11_split0.vrp
NAME:p02_11_split
BEST_KNOWN: 0
COMMENT: 0
DIMENSION: 397
CAPACITY: 140
EDGE_WEIGHT_FORMAT: FUNCTION
EDGE_WEIGHT_TYPE: EXACT_2D
NODE_COORD_SECTION
1 0.00000 0.00000
2 -34 34
3 -34 34
4 -34 34
5 -34 34
6 -34 34
7 -34 34
8 -34 34
9 15 11
10 15 11
11 15 11
12 15 11
13 7 -17
14 7 -17
15 7 -17
16 7 -17
17 7 -17
18 7 -17
19 7 -17
20 7 -17
21 33 -22
22 33 -22
23 33 -22
24 33 -22
25 14 -41
26 14 -41
27 14 -41
28 -35 -36
29 -35 -36
30 -35 -36
31 -35 -36
32 -35 -36
33 -35 -36
34 35 -38
35 35 -38
36 35 -38
37 26 -32
38 26 -32
39 26 -32
40 26 -32
41 26 -32
42 17 27
43 17 27
44 22 11
45 22 11
46 20 -27
47 20 -27
48 20 -27
49 20 -27
50 -13 -13
51 -13 -13
52 -13 -13
53 -13 -13
54 33 38
55 33 38
56 33 38
57 33 38
58 33 38
59 33 38
60 -7 36
61 -7 36
62 -7 36
63 -7 36
64 -7 36
65 -7 36
66 17 29
67 17 29
68 17 29
69 17 29
70 17 29
71 17 29
72 17 29
73 17 29
74 29 12
75 29 12
76 29 12
77 29 12
78 49 -11
79 49 -11
80 49 -11
81 49 -11
82 -31 17
83 -31 17
84 -31 17
85 25 -50
86 25 -50
87 25 -50
88 25 -50
89 25 -50
90 25 -50
91 25 -50
92 25 -50
93 -50 34
94 -50 34
95 -50 34
96 -50 34
97 -36 -46
98 -36 -46
99 -36 -46
100 -36 -46
101 -36 -46
102 -36 -46
103 -36 -46
104 -36 -46
105 47 15
106 47 15
107 47 15
108 47 15
109 -1 -11
110 -1 -11
111 -1 -11
112 -1 -11
113 -48 0
114 -48 0
115 18 39
116 18 39
117 18 39
118 6 -14
119 6 -14
120 6 -14
121 6 -14
122 6 -14
123 6 -14
124 6 -14
125 6 -14
126 32 33
127 32 33
128 -43 20
129 -43 20
130 -43 20
131 -43 20
132 -43 20
133 27 33
134 27 33
135 27 33
136 27 33
137 27 33
138 27 33
139 27 33
140 -22 -2
141 -22 -2
142 -22 -2
143 42 24
144 42 24
145 42 24
146 42 24
147 42 24
148 42 24
149 42 24
150 42 24
151 -43 -11
152 -43 -11
153 -43 -11
154 42 36
155 42 36
156 42 36
157 42 36
158 -8 47
159 -8 47
160 -8 47
161 -8 47
162 -8 47
163 -8 47
164 -8 47
165 -45 -8
166 -37 -25
167 -37 -25
168 -37 -25
169 -37 -25
170 31 34
171 31 34
172 31 34
173 31 34
174 31 34
175 31 34
176 31 34
177 31 17
178 31 17
179 31 17
180 31 17
181 27 32
182 27 32
183 27 32
184 27 32
185 27 32
186 27 32
187 15 17
188 -42 23
189 -42 23
190 -42 23
191 -23 -34
192 -23 -34
193 -23 -34
194 -23 -34
195 -23 -34
196 -23 -34
197 -23 -34
198 -23 -34
199 -19 26
200 -19 26
201 -19 26
202 -19 26
203 -19 26
204 -19 26
205 -19 26
206 24 2
207 24 2
208 24 2
209 24 2
210 24 2
211 24 2
212 24 2
213 24 2
214 33 -42
215 33 -42
216 33 -42
217 33 -42
218 33 -42
219 33 -42
220 33 -42
221 -11 46
222 -11 46
223 -11 46
224 -11 46
225 -11 46
226 -11 46
227 -11 46
228 14 -27
229 14 -27
230 14 -27
231 17 6
232 17 6
233 17 6
234 17 6
235 17 6
236 38 8
237 38 8
238 38 8
239 38 8
240 38 8
241 38 8
242 -11 -3
243 -11 -3
244 -11 -3
245 -11 -3
246 -11 -3
247 -11 -3
248 -11 -3
249 15 -31
250 15 -31
251 15 -31
252 15 -31
253 15 -31
254 15 -31
255 40 10
256 40 10
257 40 10
258 40 10
259 40 10
260 40 10
261 39 18
262 39 18
263 39 18
264 39 18
265 39 18
266 39 18
267 39 18
268 39 18
269 39 18
270 -26 -8
271 -26 -8
272 -26 -8
273 -26 -8
274 -26 -8
275 -26 -8
276 -26 -8
277 -26 -8
278 -24 2
279 -24 2
280 -24 2
281 -24 2
282 -24 2
283 -24 2
284 -24 2
285 -24 2
286 -8 8
287 -8 8
288 -8 8
289 -8 8
290 -22 2
291 -22 2
292 -22 2
293 -22 2
294 -22 2
295 -22 2
296 17 5
297 17 5
298 17 5
299 17 5
300 17 5
301 17 5
302 35 19
303 35 19
304 35 19
305 35 19
306 35 19
307 35 19
308 35 19
309 10 39
310 10 39
311 10 39
312 10 39
313 10 39
314 10 39
315 10 39
316 10 39
317 3 47
318 3 47
319 3 47
320 3 47
321 3 47
322 35 -7
323 35 -7
324 35 -7
325 -31 37
326 -31 37
327 -31 37
328 -31 37
329 -31 37
330 -31 37
331 -31 37
332 -31 37
333 33 -28
334 33 -28
335 33 -28
336 33 -28
337 33 -28
338 33 -28
339 33 -28
340 -26 -10
341 -26 -10
342 -26 -10
343 -26 -10
344 -26 -10
345 -26 -10
346 -21 -36
347 -21 -36
348 -21 -36
349 -21 -36
350 -21 -36
351 -21 -36
352 -21 -36
353 -21 -36
354 17 -13
355 17 -13
356 17 -13
357 17 -13
358 -12 -18
359 -25 -16
360 -25 -16
361 -25 -16
362 -25 -16
363 -25 -16
364 -25 -16
365 -25 -16
366 -25 -16
367 -48 48
368 -48 48
369 -48 48
370 -48 48
371 -48 48
372 -48 48
373 -48 48
374 -1 -34
375 -1 -34
376 -1 -34
377 -1 -34
378 -1 -34
379 -1 -34
380 -1 -34
381 -1 -34
382 14 42
383 14 42
384 14 42
385 -28 40
386 -28 40
387 -28 40
388 -28 40
389 -28 40
390 -28 40
391 -28 40
392 23 45
393 23 45
394 31 50
395 31 50
396 31 50
397 31 50
DEMAND_SECTION
1 0
2 28
3 7
4 1
5 1
6 1
7 1
8 1
9 28
10 28
11 1
12 1
13 28
14 7
15 1
16 1
17 1
18 1
19 1
20 1
21 28
22 14
23 1
24 1
25 28
26 28
27 1
28 28
29 28
30 1
31 1
32 1
33 1
34 14
35 7
36 1
37 28
38 1
39 1
40 1
41 1
42 28
43 7
44 14
45 7
46 28
47 14
48 1
49 1
50 28
51 28
52 7
53 1
54 14
55 1
56 1
57 1
58 1
59 1
60 14
61 1
62 1
63 1
64 1
65 1
66 28
67 28
68 7
69 1
70 1
71 1
72 1
73 1
74 28
75 28
76 7
77 1
78 14
79 1
80 1
81 1
82 14
83 7
84 1
85 28
86 14
87 7
88 1
89 1
90 1
91 1
92 1
93 28
94 1
95 1
96 1
97 28
98 14
99 7
100 1
101 1
102 1
103 1
104 1
105 14
106 7
107 1
108 1
109 14
110 1
111 1
112 1
113 28
114 28
115 14
116 7
117 1
118 28
119 28
120 1
121 1
122 1
123 1
124 1
125 1
126 28
127 1
128 14
129 7
130 1
131 1
132 1
133 14
134 7
135 1
136 1
137 1
138 1
139 1
140 28
141 28
142 7
143 28
144 14
145 7
146 1
147 1
148 1
149 1
150 1
151 28
152 28
153 1
154 28
155 1
156 1
157 1
158 28
159 7
160 1
161 1
162 1
163 1
164 1
165 28
166 14
167 7
168 1
169 1
170 28
171 28
172 1
173 1
174 1
175 1
176 1
177 28
178 1
179 1
180 1
181 14
182 1
183 1
184 1
185 1
186 1
187 28
188 28
189 14
190 7
191 28
192 7
193 1
194 1
195 1
196 1
197 1
198 1
199 28
200 14
201 7
202 1
203 1
204 1
205 1
206 28
207 14
208 1
209 1
210 1
211 1
212 1
213 1
214 28
215 28
216 7
217 1
218 1
219 1
220 1
221 14
222 7
223 1
224 1
225 1
226 1
227 1
228 14
229 7
230 1
231 14
232 7
233 1
234 1
235 1
236 28
237 14
238 7
239 1
240 1
241 1
242 28
243 28
244 1
245 1
246 1
247 1
248 1
249 14
250 1
251 1
252 1
253 1
254 1
255 14
256 1
257 1
258 1
259 1
260 1
261 28
262 14
263 7
264 1
265 1
266 1
267 1
268 1
269 1
270 28
271 14
272 7
273 1
274 1
275 1
276 1
277 1
278 28
279 7
280 1
281 1
282 1
283 1
284 1
285 1
286 28
287 14
288 7
289 1
290 28
291 28
292 7
293 1
294 1
295 1
296 28
297 28
298 7
299 1
300 1
301 1
302 28
303 7
304 1
305 1
306 1
307 1
308 1
309 28
310 7
311 1
312 1
313 1
314 1
315 1
316 1
317 28
318 1
319 1
320 1
321 1
322 28
323 1
324 1
325 28
326 7
327 1
328 1
329 1
330 1
331 1
332 1
333 28
334 14
335 7
336 1
337 1
338 1
339 1
340 14
341 1
342 1
343 1
344 1
345 1
346 28
347 14
348 1
349 1
350 1
351 1
352 1
353 1
354 28
355 14
356 1
357 1
358 28
359 14
360 7
361 1
362 1
363 1
364 1
365 1
366 1
367 28
368 14
369 1
370 1
371 1
372 1
373 1
374 28
375 28
376 7
377 1
378 1
379 1
380 1
381 1
382 28
383 14
384 1
385 28
386 14
387 7
388 1
389 1
390 1
391 1
392 14
393 7
394 28
395 28
396 1
397 1
DEPOT_SECTION
1
-1
EOF