SDVRP instances/custom_instances/p02_11_split0.sol
396 -10 9 8 11 232 233 234 230 231 295 298 296 -36 39 40 38 37 215 213 217 219 218 216 214 33 35 34 336 334 -47 48 45 46 229 227 228 374 373 375 379 380 376 377 378 -52 49 50 51 242 246 247 241 243 -64 59 62 60 63 61 225 226 220 224 223 221 222 158 163 162 157 160 161 159 318 317 316 319 320 -69 65 72 66 71 70 68 67 42 41 186 -93 94 95 92 370 372 367 371 366 369 368 1 6 2 3 7 4 5 199 203 201 -97 98 96 102 99 103 100 101 27 28 31 29 30 32 168 166 167 165 -109 111 110 108 351 345 347 346 349 350 348 352 192 193 191 190 196 195 197 194 357 -115 116 114 381 382 383 314 308 311 313 310 315 309 312 -117 118 17 18 15 14 13 12 354 353 355 356 -123 124 119 121 120 122 19 16 26 25 24 89 85 86 87 88 91 90 84 251 253 248 252 249 250 -126 125 173 174 171 169 170 175 172 136 132 135 133 138 134 137 180 182 184 185 183 181 -131 130 129 127 128 187 189 188 83 81 82 285 288 286 -140 139 141 279 278 293 289 290 294 292 291 -154 156 155 153 54 56 57 53 58 55 393 395 394 396 392 391 -176 179 307 302 305 301 306 303 304 148 144 146 143 147 149 142 145 268 261 264 263 -177 178 262 267 265 260 266 107 106 105 104 256 255 259 258 254 257 240 236 238 235 237 239 208 207 209 212 -204 200 198 202 387 384 390 389 386 388 385 324 329 325 331 330 326 327 328 287 -206 210 211 205 75 73 76 74 44 43 299 297 300 -244 245 272 274 273 276 269 270 275 271 150 151 152 361 365 363 360 362 358 359 364 -281 280 277 282 284 283 112 113 164 340 342 339 344 343 341 -321 323 322 77 80 78 79 23 20 22 21 335 338 332 333 337 0 





OBJ=
2139.940
BEST_KNOWN=
0.000